
  22   10
  10   10   10   10   10   10   10   10   10   10

   0   0   0   0   0   0   0   0   0   0   0   5 2 3 4 6 7 
   3   0   0  10   0   0   0   0   0   0   0   3 11 10 5 
   1   0   0   0  10   0   0   0   0   0   0   4 13 11 10 9 
  10   0   0   0   0   0   0   0   0   0  10   4 21 13 11 9 
   1   0   0   0   0  10   0   0   0   0   0   4 21 16 13 9 
   7   0   0   0   0   0   0   0   0  10   0   3 21 11 9 
   9   0   0   0   0   0   0   0  10   0   0   3 16 9 8 
   7   0   0   0   0   0   0   0   0   0  10   4 21 18 14 12 
   7   0   0   0   0   0   0   0   0  10   0   3 18 14 12 
   5   0   0   0   0   0   0   0   0  10   0   5 21 19 18 17 14 
   9   0   0   0   0   0   0   0   0   0  10   3 20 18 16 
   9   0   0   0   0   0  10   0   0   0   0   2 17 15 
   4  10   0   0   0   0   0   0   0   0   0   2 18 17 
   9  10   0   0   0   0   0   0   0   0   0   1 20 
   8   0   0   0  10   0   0   0   0   0   0   1 19 
   7   0   0   0  10   0   0   0   0   0   0   1 17 
   5   0   0  10   0   0   0   0   0   0   0   1 22
   7   0   0   0  10   0   0   0   0   0   0   1 22
   2   0   0   0   0  10   0   0   0   0   0   1 22
   8   0   0   0   0   0   0  10   0   0   0   1 22
   1   0   0   0   0   0   0   0  10   0   0   1 22
   0   0   0   0   0   0   0   0   0   0   0   0 
